c 970 z 1428
582	114
194	38
679	133
485	95
396	612
873	171
594	918
264	408
462	714
330	510
582	114
388	76
291	57
132	204
660	1020
528	816
970	190
330	510
582	114
462	714
776	152
194	38
594	918
970	190
396	612
330	510
198	306
485	95
528	816
462	714
582	114
388	76
594	918
679	133
66	102
198	306
396	612
660	1020
66	102
660	1020
594	918
330	510
594	918
582	114
388	76
291	57
594	918
485	95
396	612
132	204